SDVRP instances/custom_instances/p04_6_split0.vrp
NAME:p04_6_split
BEST_KNOWN: 0
COMMENT: 0
DIMENSION: 693
CAPACITY: 200
EDGE_WEIGHT_FORMAT: FUNCTION
EDGE_WEIGHT_TYPE: EXACT_2D
NODE_COORD_SECTION
1 0.00000 0.00000
2 -2 -11
3 -2 -11
4 -2 -11
5 -2 -11
6 -2 -11
7 13 42
8 13 42
9 13 42
10 19 -26
11 19 -26
12 19 -26
13 19 -26
14 -6 -28
15 -6 -28
16 -6 -28
17 -20 11
18 -20 11
19 -20 11
20 -20 11
21 -20 11
22 10 -43
23 10 -43
24 10 -43
25 10 -43
26 10 -43
27 10 -43
28 11 -21
29 11 -21
30 11 -21
31 -27 44
32 -27 44
33 -27 44
34 -27 44
35 -27 44
36 -27 44
37 -27 44
38 6 9
39 6 9
40 6 9
41 6 9
42 6 9
43 6 9
44 6 9
45 6 9
46 -50 0
47 -50 0
48 28 14
49 28 14
50 28 14
51 28 14
52 -3 5
53 -3 5
54 -3 5
55 21 -43
56 21 -43
57 21 -43
58 10 -46
59 10 -46
60 10 -46
61 -16 26
62 -16 26
63 -16 26
64 -16 26
65 -16 26
66 17 6
67 17 6
68 17 6
69 -3 -49
70 -3 -49
71 -3 -49
72 -3 -49
73 -28 41
74 -28 41
75 -28 41
76 -28 41
77 -28 41
78 -28 41
79 -28 41
80 -10 47
81 -10 47
82 -10 47
83 -10 47
84 48 38
85 48 38
86 48 38
87 48 38
88 48 38
89 48 38
90 48 38
91 7 -11
92 7 -11
93 7 -11
94 -25 48
95 -25 48
96 -25 48
97 -25 48
98 -25 48
99 28 -50
100 28 -50
101 28 -50
102 28 -50
103 28 -50
104 28 -50
105 28 -50
106 -28 50
107 -28 50
108 9 37
109 9 37
110 9 37
111 9 37
112 -19 -8
113 -19 -8
114 -19 -8
115 17 48
116 17 48
117 17 48
118 17 48
119 17 48
120 17 48
121 23 -28
122 23 -28
123 -27 -29
124 -27 -29
125 -27 -29
126 -27 -29
127 -41 -7
128 -41 -7
129 -41 -7
130 -41 -7
131 -41 -7
132 44 45
133 44 45
134 44 45
135 44 45
136 44 45
137 -6 -17
138 -6 -17
139 -6 -17
140 31 -31
141 31 -31
142 31 -31
143 31 -31
144 31 -31
145 31 -31
146 38 -22
147 38 -22
148 38 -22
149 38 -22
150 38 -22
151 -13 48
152 -13 48
153 -13 48
154 -13 48
155 -13 48
156 -13 48
157 -15 25
158 -15 25
159 -15 25
160 44 0
161 44 0
162 44 0
163 44 0
164 44 0
165 -36 5
166 -12 7
167 -12 7
168 -12 7
169 -12 7
170 -12 7
171 -10 29
172 -10 29
173 -10 29
174 -10 29
175 40 37
176 40 37
177 40 37
178 40 37
179 40 37
180 40 37
181 40 37
182 -29 43
183 -29 43
184 -29 43
185 -29 43
186 -29 43
187 -29 43
188 -29 43
189 11 -25
190 11 -25
191 11 -25
192 -47 -45
193 -47 -45
194 -47 -45
195 -47 -45
196 -47 -45
197 -47 -45
198 9 -47
199 9 -47
200 9 -47
201 -24 -9
202 -24 -9
203 -24 -9
204 -24 -9
205 -24 -9
206 -24 -9
207 23 -22
208 23 -22
209 23 -22
210 23 -22
211 23 -22
212 23 -22
213 23 -22
214 23 -22
215 35 7
216 35 7
217 17 20
218 17 20
219 17 20
220 17 20
221 17 20
222 -29 -41
223 -29 -41
224 -29 -41
225 -29 -41
226 -29 -41
227 32 -35
228 32 -35
229 32 -35
230 -30 -34
231 -30 -34
232 -30 -34
233 43 -30
234 43 -30
235 43 -30
236 43 -30
237 43 -30
238 24 46
239 24 46
240 24 46
241 24 46
242 24 46
243 24 46
244 24 46
245 18 21
246 18 21
247 18 21
248 -33 -1
249 -33 -1
250 -33 -1
251 -33 -1
252 -33 -1
253 23 -20
254 23 -20
255 23 -20
256 11 21
257 11 21
258 11 21
259 11 21
260 35 36
261 35 36
262 35 36
263 -50 17
264 -50 17
265 -50 17
266 -50 17
267 -50 17
268 -50 17
269 -18 2
270 -18 2
271 -18 2
272 -18 2
273 25 44
274 25 44
275 25 44
276 25 44
277 25 44
278 25 44
279 46 23
280 46 23
281 46 23
282 46 23
283 46 23
284 41 -3
285 41 -3
286 41 -3
287 41 -3
288 26 -27
289 26 -27
290 26 -27
291 26 -27
292 45 43
293 45 43
294 14 1
295 14 1
296 14 1
297 14 1
298 14 1
299 14 1
300 14 1
301 -23 38
302 -23 38
303 -23 38
304 -23 38
305 -23 38
306 -23 38
307 27 49
308 27 49
309 27 49
310 27 49
311 27 49
312 27 49
313 24 -11
314 24 -11
315 24 -11
316 24 -11
317 24 -11
318 -42 50
319 -42 50
320 -42 50
321 32 7
322 32 7
323 32 7
324 32 7
325 -33 -6
326 -33 -6
327 -33 -6
328 -33 -6
329 -33 -6
330 -33 -6
331 -33 -6
332 -33 -6
333 -14 2
334 -14 2
335 -14 2
336 -14 2
337 -14 2
338 -14 2
339 -14 2
340 -43 -22
341 -43 -22
342 -43 -22
343 -43 -22
344 -43 -22
345 -43 -22
346 -35 -31
347 -35 -31
348 -35 -31
349 -35 -31
350 -35 -31
351 -48 -16
352 -48 -16
353 -48 -16
354 -48 -16
355 -48 -16
356 17 -46
357 17 -46
358 17 -46
359 33 48
360 33 48
361 33 48
362 33 48
363 33 48
364 33 48
365 33 48
366 -4 2
367 -4 2
368 -4 2
369 39 49
370 39 49
371 39 49
372 39 49
373 39 49
374 39 49
375 -26 28
376 -26 28
377 -26 28
378 -26 28
379 -24 -13
380 -24 -13
381 -24 -13
382 -24 -13
383 47 -18
384 47 -18
385 47 -18
386 47 -18
387 47 -18
388 50 43
389 50 43
390 49 8
391 49 8
392 49 8
393 49 8
394 3 43
395 3 43
396 3 43
397 3 43
398 3 43
399 3 43
400 37 -32
401 37 -32
402 37 -32
403 -17 -18
404 -17 -18
405 5 28
406 5 28
407 5 28
408 5 28
409 5 28
410 18 -20
411 18 -20
412 18 -20
413 18 -20
414 18 -20
415 46 -23
416 46 -23
417 46 -23
418 46 -23
419 46 -23
420 46 -23
421 46 -23
422 -50 -3
423 -50 -3
424 -50 -3
425 -50 -3
426 -36 -41
427 -36 -41
428 -3 -40
429 -3 -40
430 -3 -40
431 -3 -40
432 37 -2
433 37 -2
434 37 -2
435 -25 -14
436 -25 -14
437 -25 -14
438 -25 -14
439 -25 -14
440 -25 -14
441 -25 -14
442 2 -48
443 2 -48
444 2 -48
445 -7 -26
446 -7 -26
447 -7 -26
448 -7 -26
449 -7 -26
450 -18 -19
451 -18 -19
452 19 -21
453 19 -21
454 19 -21
455 19 -21
456 19 -21
457 19 -21
458 19 -21
459 -2 -30
460 -2 -30
461 -2 -30
462 -2 -30
463 -2 -30
464 37 37
465 37 37
466 37 37
467 -29 -48
468 -29 -48
469 -29 -48
470 -29 -48
471 -29 -48
472 -29 -48
473 -29 -48
474 -39 3
475 -39 3
476 -39 3
477 -39 3
478 -39 3
479 -39 3
480 -39 3
481 9 44
482 9 44
483 9 44
484 9 44
485 9 44
486 9 44
487 9 44
488 9 44
489 37 -50
490 37 -50
491 37 -50
492 29 23
493 29 23
494 29 23
495 29 23
496 47 -2
497 47 -2
498 47 -2
499 47 -2
500 -49 9
501 -49 9
502 -49 9
503 -49 9
504 -49 9
505 4 -22
506 4 -22
507 4 -22
508 4 -22
509 4 -22
510 4 -22
511 -11 -12
512 -11 -12
513 -11 -12
514 -11 -12
515 -11 -12
516 -46 8
517 -46 8
518 -46 8
519 -46 8
520 -2 42
521 -2 42
522 -2 42
523 -2 42
524 -2 42
525 -2 42
526 -2 42
527 0 37
528 0 37
529 0 37
530 0 37
531 41 4
532 41 4
533 41 4
534 41 4
535 41 4
536 46 -37
537 46 -37
538 46 -37
539 46 -37
540 46 -37
541 46 -37
542 10 29
543 10 29
544 10 29
545 10 29
546 10 29
547 10 29
548 -43 -36
549 -43 -36
550 -43 -36
551 -43 -36
552 -43 -36
553 -43 -36
554 -43 -36
555 -43 -36
556 28 41
557 28 41
558 28 41
559 28 41
560 -22 -24
561 -22 -24
562 -22 -24
563 -22 -24
564 -22 -24
565 -22 -24
566 1 -23
567 1 -23
568 1 -23
569 1 -23
570 1 -23
571 -27 14
572 -27 14
573 -27 14
574 14 48
575 14 48
576 14 48
577 14 48
578 -39 20
579 -39 20
580 -39 20
581 -39 20
582 -39 20
583 -39 20
584 -39 20
585 30 36
586 30 36
587 50 -15
588 50 -15
589 -18 -5
590 -18 -5
591 -18 -5
592 -18 -5
593 -18 -5
594 38 -43
595 38 -43
596 38 -43
597 38 -43
598 38 -43
599 -20 -20
600 -20 -20
601 -20 -20
602 -20 -20
603 -20 -20
604 -20 -20
605 -20 -20
606 -20 -20
607 -10 -27
608 -10 -27
609 -10 -27
610 -10 -27
611 -10 -27
612 -10 -27
613 -10 -27
614 28 -14
615 28 -14
616 28 -14
617 -17 28
618 -17 28
619 -17 28
620 -2 -41
621 -2 -41
622 -2 -41
623 -2 -41
624 -37 15
625 -37 15
626 -37 15
627 -37 15
628 -37 15
629 -37 15
630 -37 15
631 -40 -45
632 -40 -45
633 -40 -45
634 -40 -45
635 -4 8
636 -4 8
637 -4 8
638 -4 8
639 -4 8
640 46 45
641 46 45
642 46 45
643 46 45
644 46 45
645 -22 -34
646 -22 -34
647 -22 -34
648 -3 -48
649 -3 -48
650 -3 -48
651 -3 -48
652 -3 -48
653 47 -33
654 47 -33
655 47 -33
656 47 -33
657 14 5
658 14 5
659 14 5
660 14 5
661 14 5
662 26 23
663 26 23
664 8 -9
665 8 -9
666 8 -9
667 -32 25
668 -32 25
669 -32 25
670 -32 25
671 -32 25
672 -32 25
673 -25 16
674 -25 16
675 -25 16
676 -25 16
677 -25 16
678 -25 16
679 -18 -46
680 -18 -46
681 -18 -46
682 -18 -46
683 44 13
684 44 13
685 44 13
686 44 13
687 -10 -8
688 -10 -8
689 -10 -8
690 24 -27
691 24 -27
692 24 -27
693 24 -27
DEMAND_SECTION
1 0
2 40
3 10
4 2
5 2
6 1
7 40
8 10
9 1
10 40
11 40
12 10
13 2
14 20
15 10
16 2
17 40
18 2
19 2
20 2
21 2
22 20
23 10
24 2
25 2
26 2
27 2
28 40
29 40
30 1
31 40
32 10
33 2
34 2
35 2
36 2
37 1
38 40
39 40
40 10
41 2
42 2
43 2
44 2
45 1
46 40
47 10
48 40
49 2
50 2
51 2
52 40
53 20
54 10
55 20
56 10
57 2
58 40
59 40
60 2
61 40
62 10
63 2
64 2
65 2
66 40
67 2
68 1
69 40
70 40
71 2
72 1
73 40
74 40
75 10
76 2
77 2
78 2
79 2
80 20
81 10
82 2
83 1
84 40
85 20
86 10
87 2
88 2
89 2
90 2
91 20
92 10
93 2
94 40
95 20
96 2
97 2
98 2
99 40
100 40
101 2
102 2
103 2
104 2
105 1
106 20
107 10
108 40
109 20
110 2
111 1
112 40
113 10
114 1
115 40
116 40
117 2
118 2
119 2
120 1
121 40
122 10
123 40
124 2
125 2
126 1
127 20
128 2
129 2
130 2
131 2
132 20
133 2
134 2
135 2
136 2
137 40
138 20
139 10
140 40
141 20
142 10
143 2
144 2
145 2
146 40
147 2
148 2
149 2
150 2
151 40
152 40
153 2
154 2
155 2
156 1
157 40
158 2
159 1
160 40
161 20
162 2
163 2
164 2
165 40
166 40
167 20
168 10
169 2
170 1
171 40
172 2
173 2
174 1
175 40
176 20
177 10
178 2
179 2
180 2
181 2
182 40
183 40
184 2
185 2
186 2
187 2
188 1
189 40
190 40
191 2
192 40
193 20
194 10
195 2
196 2
197 2
198 20
199 10
200 1
201 40
202 10
203 2
204 2
205 2
206 1
207 40
208 20
209 10
210 2
211 2
212 2
213 2
214 1
215 40
216 20
217 40
218 40
219 2
220 2
221 1
222 40
223 20
224 2
225 2
226 2
227 40
228 10
229 2
230 40
231 10
232 2
233 40
234 2
235 2
236 2
237 2
238 40
239 20
240 2
241 2
242 2
243 2
244 1
245 40
246 10
247 2
248 40
249 20
250 2
251 2
252 1
253 40
254 20
255 1
256 20
257 2
258 2
259 1
260 40
261 2
262 2
263 40
264 40
265 10
266 2
267 2
268 1
269 40
270 20
271 10
272 1
273 40
274 2
275 2
276 2
277 2
278 1
279 40
280 2
281 2
282 2
283 1
284 20
285 2
286 2
287 1
288 20
289 2
290 2
291 2
292 40
293 40
294 40
295 20
296 10
297 2
298 2
299 2
300 2
301 20
302 10
303 2
304 2
305 2
306 1
307 40
308 40
309 10
310 2
311 2
312 1
313 40
314 2
315 2
316 2
317 1
318 40
319 20
320 2
321 20
322 2
323 2
324 1
325 40
326 40
327 10
328 2
329 2
330 2
331 2
332 1
333 40
334 40
335 10
336 2
337 2
338 2
339 2
340 40
341 20
342 10
343 2
344 2
345 1
346 40
347 10
348 2
349 2
350 2
351 40
352 10
353 2
354 2
355 2
356 40
357 2
358 2
359 40
360 20
361 10
362 2
363 2
364 2
365 1
366 40
367 2
368 1
369 40
370 10
371 2
372 2
373 2
374 2
375 40
376 40
377 2
378 1
379 40
380 10
381 2
382 2
383 40
384 20
385 2
386 2
387 2
388 40
389 40
390 40
391 40
392 2
393 2
394 40
395 10
396 2
397 2
398 2
399 1
400 40
401 40
402 2
403 40
404 20
405 40
406 40
407 2
408 2
409 1
410 40
411 10
412 2
413 2
414 2
415 40
416 20
417 2
418 2
419 2
420 2
421 1
422 40
423 40
424 2
425 1
426 40
427 20
428 40
429 2
430 2
431 2
432 40
433 10
434 1
435 40
436 40
437 10
438 2
439 2
440 2
441 2
442 40
443 40
444 20
445 40
446 2
447 2
448 2
449 1
450 40
451 1
452 40
453 40
454 10
455 2
456 2
457 2
458 1
459 40
460 10
461 2
462 2
463 1
464 40
465 2
466 1
467 40
468 20
469 10
470 2
471 2
472 2
473 2
474 40
475 10
476 2
477 2
478 2
479 2
480 1
481 40
482 40
483 10
484 2
485 2
486 2
487 2
488 1
489 40
490 20
491 2
492 20
493 10
494 2
495 2
496 40
497 20
498 2
499 2
500 40
501 40
502 2
503 2
504 2
505 40
506 10
507 2
508 2
509 2
510 1
511 40
512 10
513 2
514 2
515 1
516 20
517 10
518 2
519 2
520 20
521 10
522 2
523 2
524 2
525 2
526 1
527 40
528 20
529 10
530 2
531 20
532 10
533 2
534 2
535 2
536 40
537 20
538 10
539 2
540 2
541 1
542 40
543 10
544 2
545 2
546 2
547 2
548 40
549 40
550 10
551 2
552 2
553 2
554 2
555 1
556 40
557 20
558 2
559 2
560 20
561 10
562 2
563 2
564 2
565 1
566 40
567 10
568 2
569 2
570 2
571 40
572 2
573 1
574 20
575 10
576 2
577 2
578 40
579 20
580 10
581 2
582 2
583 2
584 2
585 40
586 20
587 40
588 1
589 20
590 2
591 2
592 2
593 1
594 40
595 40
596 10
597 2
598 1
599 40
600 20
601 10
602 2
603 2
604 2
605 2
606 1
607 40
608 20
609 10
610 2
611 2
612 2
613 1
614 20
615 10
616 2
617 40
618 40
619 20
620 40
621 10
622 2
623 2
624 40
625 40
626 2
627 2
628 2
629 2
630 1
631 40
632 40
633 10
634 2
635 40
636 10
637 2
638 2
639 2
640 40
641 10
642 2
643 2
644 1
645 40
646 40
647 10
648 20
649 2
650 2
651 2
652 2
653 40
654 20
655 10
656 2
657 40
658 40
659 2
660 2
661 2
662 40
663 1
664 40
665 20
666 2
667 40
668 10
669 2
670 2
671 2
672 1
673 40
674 2
675 2
676 2
677 2
678 1
679 40
680 20
681 10
682 1
683 40
684 10
685 2
686 1
687 40
688 40
689 20
690 40
691 40
692 10
693 1
DEPOT_SECTION
1
-1
EOF