SDVRP instances/custom_instances/p04_6_split0.sol
692 -3 5 2 4 1 686 688 687 -12 10 11 9 121 120 689 692 691 456 457 -24 25 26 21 22 23 58 57 59 197 199 198 357 355 356 -40 41 39 558 557 555 556 273 275 272 276 274 277 241 239 242 243 238 237 240 257 258 -43 42 44 38 37 53 52 51 365 367 366 -47 49 320 214 215 433 432 431 613 313 315 314 316 -50 48 279 281 280 282 278 685 683 682 684 392 391 389 390 321 323 322 -55 54 56 99 98 101 100 103 102 104 488 490 489 595 597 596 -62 64 63 60 61 617 618 616 158 156 157 -73 77 75 72 76 74 78 376 375 374 377 -84 83 85 88 89 87 86 387 388 292 464 -92 90 91 29 28 27 188 190 189 -111 378 379 381 380 437 435 438 436 434 439 440 -113 112 200 202 203 201 205 204 328 324 326 325 330 331 329 327 588 590 592 589 591 -125 123 230 231 229 221 223 224 222 225 469 471 470 472 468 467 466 -136 138 137 565 567 568 569 566 509 507 506 508 504 505 -142 143 144 139 140 141 400 399 401 145 -152 151 154 153 150 155 81 79 80 82 524 519 522 520 521 523 525 526 -164 517 516 515 518 503 502 499 501 500 473 -167 169 19 17 20 18 583 579 577 580 581 582 578 265 264 266 267 263 262 -168 165 166 16 677 672 634 638 635 637 636 -173 170 172 171 302 305 31 33 34 35 36 32 30 183 181 184 182 186 185 187 -177 176 179 180 291 642 639 643 640 641 133 135 132 134 131 373 371 372 369 370 368 -196 192 195 191 193 194 631 632 633 630 426 561 563 564 562 -219 217 220 218 216 244 661 662 494 493 491 492 -234 235 233 236 232 652 654 653 655 540 536 537 539 535 538 -245 246 584 465 463 175 174 178 259 261 260 -247 126 128 127 129 130 354 352 350 353 351 341 344 339 343 342 340 -248 250 251 249 424 423 421 422 45 46 478 479 477 475 474 476 -255 256 115 119 118 116 114 117 575 574 576 573 7 6 8 546 545 -268 270 269 271 333 338 337 332 335 336 334 -284 286 285 283 498 496 495 497 161 162 159 160 163 534 531 530 532 533 296 298 299 297 -287 288 289 290 228 226 227 593 594 690 665 -293 294 295 67 65 66 656 660 659 658 657 -304 303 300 301 95 94 93 96 97 105 106 319 318 317 -311 309 308 307 310 306 362 360 361 364 359 358 363 585 -312 254 253 252 212 208 207 206 209 210 211 213 410 -346 348 345 347 349 553 554 547 548 549 551 550 552 425 -404 407 408 405 109 108 110 107 542 541 544 543 -406 486 485 481 482 480 484 483 487 396 398 393 397 395 394 527 528 529 -429 430 428 427 619 621 620 622 442 443 441 -451 453 455 452 454 413 412 411 409 663 664 -459 460 648 647 651 650 649 71 69 70 68 679 678 681 680 -461 462 458 13 14 15 446 444 445 447 448 608 609 606 607 611 612 610 -510 402 450 449 602 605 603 601 599 598 600 604 -512 514 513 511 403 559 560 122 124 645 646 644 -571 572 570 623 626 624 627 628 625 629 667 666 671 669 668 670 673 676 675 674 -586 587 383 386 384 385 382 414 417 415 418 420 419 416 146 148 149 147 615 614 0 





OBJ=
4421.632
BEST_KNOWN=
0.000